
  32   50
   4   13    9   14   10   20   14    6    6   10   10   12   10   18    4    6   12   12    9   15   10   14    4   15    4   11   12   14   13   19    8    9    0    0    0    0    0    0    0    0    0    0    0    0    0    0    0    0    0    0

   0   0   0   0   0   0   0   0   0   0   0   0   0   0   0   0   0   0   0   0   0   0   0   0   0   0   0   0   0   0   0   0   0   0   0   0   0   0   0   0   0   0   0   0   0   0   0   0   0   0   0   7 2 3 5 6 10 11 12 
   9   0   0   0   0   0   0   0   0   0   0   0   0   0   6   0   0   0   0   0   6   0   4   0   0   0   0   0   0   0   0   0   0   0   0   0   0   0   0   0   0   0   0   0   0   0   0   0   0   0   0  10 31 21 18 17 14 13 9 8 7 4 
   3   0   0   0   2   0   0   0   0   0   0   0   0   0   0   0   0   0   0   0   0   0   3   0   0   0   0   0   0   0   0   0   0   0   0   0   0   0   0   0   0   0   0   0   0   0   0   0   0   0   0   8 29 21 20 18 16 15 14 7 
   5   0   0   0   0   0   0   0   0   0   0   0   0   0   6   0   1   0   0   0   0   2   0   0  10   0   0   0   0   0   1   0   0   0   0   0   0   0   0   0   0   0   0   0   0   0   0   0   0   0   0   8 30 29 28 26 24 20 16 15 
   3   0   0   0   0   0   0   0   0   0   9   0   0   0   0   0   0   0   0   0   0   0   3   2   0   0   0   0   0   0   0   0   0   0   0   0   0   0   0   0   0   0   0   0   0   0   0   0   0   0   0   8 31 29 28 26 25 24 20 15 
   2   0   0   0   5   3   0   0   0   0   0   8   0   0   0   0   0   0   0   0   0   0   0   2   0   0   0   0   0   5   3   0   0   0   0   0   0   0   0   0   0   0   0   0   0   0   0   0   0   0   0   6 31 30 26 23 17 16 
   1   0   0   0   0   0   0   0   0   0   0   4   0   0   0   0   0   0   0   0   0   0   0   0   0   0   0   0   0   0   0   0   0   0   0   0   0   0   0   0   0   0   0   0   0   0   0   0   0   0   0   7 30 28 27 26 25 22 19 
   4   0   0   0   0   0   0   0   0   0   0   0   0   0   0   0   0   2   0   0   0   0   0   0   0   0   0   0   0   0   0   0   2   0   0   0   0   0   0   0   0   0   0   0   0   0   0   0   0   0   0   5 28 27 26 24 16 
   7   0   0   0   0   0   3   0   0   0   0   0   0   0   9   0   0   1   0   0   0   0   0   0   0   0   0   9   4   0   4   0   0   0   0   0   0   0   0   0   0   0   0   0   0   0   0   0   0   0   0   5 29 25 24 22 19 
   7   0   0   4   0   3   0   0   0   0   3   0   0   0   0   0   0   0   0   0   4   0   0   0  10   4   0   1   0   0   0   0   1   0   0   0   0   0   0   0   0   0   0   0   0   0   0   0   0   0   0   5 28 26 24 23 21 
   2   0   3   0   0   0   0   0   0   0   0   0   0   0   0   1   0   0   0   0   9   0   0   0   0   0   0   0   0  10   0   0   6   0   0   0   0   0   0   0   0   0   0   0   0   0   0   0   0   0   0   5 27 26 24 23 22 
   2   0   0   5   0   0   0   0   0   0   0   0   0   0   0   0   0   0   0   0   0   0   0   0   0   0   5   0   0   0   0   0   4   0   0   0   0   0   0   0   0   0   0   0   0   0   0   0   0   0   0   4 28 27 23 20 
  10   0   0   0  10   0   8   9   6   0   0   0   5   0   0   0   0   0   0   4   0   0   0   0   0   0   0   0   0   0   0   0   0   0   0   0   0   0   0   0   0   0   0   0   0   0   0   0   0   0   0   4 26 25 24 22 
   3   0   0   0   0   0  10   0   0   0   0   0   0   0   0   0   0   0   0   0   0   2   0   0   5   0   0   6   0   0   0   0   0   0   0   0   0   0   0   0   0   0   0   0   0   0   0   0   0   0   0   3 26 25 22 
  10   1   0   8   0   0   0   0   0   0   0   0   0  10   0   0   3   5   0   0   0   0   0   0   1   0   2   0   9   0   0   0   0   0   0   0   0   0   0   0   0   0   0   0   0   0   0   0   0   0   0   2 27 19 
   2   0   1   0   0   0   0   0   0   0   0   0   9   0   2   0   5   0   0   0   0   0   7   0   0   0   0   0   0   0   4   0   0   0   0   0   0   0   0   0   0   0   0   0   0   0   0   0   0   0   0   2 25 22 
   4   0   0   5   0   0   0   9   0   0   0   0   0   0   0   0   0   0   0   0   0   0   0   0   0   0   0   0   0   0   0   0   0   0   0   0   0   0   0   0   0   0   0   0   0   0   0   0   0   0   0   2 25 24 
   8   0   0   2   2   0   0   0   0   0   0   3   0   0   9   0   0   0   0   0   0   8   0   0   0   0   0   0   5   0  10   0   0   0   0   0   0   0   0   0   0   0   0   0   0   0   0   0   0   0   0   2 24 23 
   5   0   0   0   0  10   7   0   0   0   0   0   6   0   0   0   0   0   0   0   0   0   8   0   0   0   0   0   0   0   0   0   0   0   0   0   0   0   0   0   0   0   0   0   0   0   0   0   0   0   0   1 23 
   1   0   0   0   0   0   0   0   0   5   0   0   0   0   0   0   0   9   0   0   0   0   3   0   0   0   0   0   0   0   0   8   0   0   0   0   0   0   0   0   0   0   0   0   0   0   0   0   0   0   0   1 22 
   5   0   7   0   5   0   5   0   0   0   1   0   0   0   0   0   0   0   0   0   4   0   0   0   3   0   5   0   0   0   0   0   0   0   0   0   0   0   0   0   0   0   0   0   0   0   0   0   0   0   0   1 22 
   8   0   0   0   0   0   0   0   0   0   1   0   0   0   0   4   0   0   5   0   7   0   0   0   0   0   3   7   0   9   2   0   0   0   0   0   0   0   0   0   0   0   0   0   0   0   0   0   0   0   0   1 32
   1   0   0   0   0   0   4   0   0   0   0   0   0   0   0   0   0   0   0   0   0   2   0   0   0   0   1   0   0   0   0   0   0   0   0   0   0   0   0   0   0   0   0   0   0   0   0   0   0   0   0   1 32
   5   0   8   0   0   0   0   0   0   0   0   0   0   0   0   0   0   0   0   0   0   0   0   3   0   0   0   0   0   0   0   0   0   0   0   0   0   0   0   0   0   0   0   0   0   0   0   0   0   0   0   1 32
   1   0   0   0   0   0   0   7   0   0   2   0   0   0   0   0   0   0   0   0   0   0   0   3   9   0   0   0   0   0   0   0   0   0   0   0   0   0   0   0   0   0   0   0   0   0   0   0   0   0   0   1 32
   1   0   0   2   0   0   0   0   0   0   0   0   0   0   0   0   0   0   0   0   0   0   3   0   0   0   0   0   3   0   4   0   0   0   0   0   0   0   0   0   0   0   0   0   0   0   0   0   0   0   0   1 32
  10   0   0   0   0   0   0   0   0   0   4   6   0   0   0   0   0   0   0   9   0   0   9   0   0   0  10   0   0   0   0   0   0   0   0   0   0   0   0   0   0   0   0   0   0   0   0   0   0   0   0   1 32
   2   0   0   0   0   0   0   0   0   0   0   9   0   0   0   0   0   0   0   0   0   0   0   0   0   0   0   0   0   0   0   0   0   0   0   0   0   0   0   0   0   0   0   0   0   0   0   0   0   0   0   1 32
  10   4   0   0   0   0   0   0   0   0   0   0   2   0   0   0   0   0   0   0  10   0   0   0   0   0   0   0   3   0   0   1   0   0   0   0   0   0   0   0   0   0   0   0   0   0   0   0   0   0   0   1 32
  10   0   0   0   0   0   0   0   0   3   0   0   0   0   0   0   0   0   9   0   0   4   0   0   0   0   0   0   0   0   6   0   0   0   0   0   0   0   0   0   0   0   0   0   0   0   0   0   0   0   0   1 32
   5   0   9   0   0   0   0   0   0   0   0   0   0   0   0   0   0   6   0   0   0   0   0   0   0   0   0   0   0   0   0   0   0   0   0   0   0   0   0   0   0   0   0   0   0   0   0   0   0   0   0   1 32
   0   0   0   0   0   0   0   0   0   0   0   0   0   0   0   0   0   0   0   0   0   0   0   0   0   0   0   0   0   0   0   0   0   0   0   0   0   0   0   0   0   0   0   0   0   0   0   0   0   0   0   0 
